Input file: instance_18.lp
Input data:
num_squadre(3).
player(1, centrocampista, difensore).
player(2, attaccante, difensore).
player(3, difensore, centrocampista).
player(4, portiere, difensore).
player(5, attaccante, difensore).
player(6, difensore, centrocampista).
player(7, difensore, portiere).
player(8, portiere, centrocampista).
player(9, portiere, attaccante).
player(10, attaccante, difensore).
player(11, centrocampista, portiere).
player(12, portiere, attaccante).
player(13, attaccante, centrocampista).
player(14, difensore, centrocampista).
player(15, centrocampista, difensore).
player(16, attaccante, portiere).
player(17, portiere, centrocampista).
player(18, difensore, attaccante).
player(19, portiere, centrocampista).
player(20, centrocampista, portiere).
player(21, centrocampista, portiere).
different_team(1, 2).
different_team(1, 3).
different_team(2, 3).
different_team(10, 11).

Output Clingo:
clingo version 5.7.1
Reading from ...ed-Reasoning-Project\Clingo\implASP.lp ...
Solving...
Answer: 1
assigned(1,3,centrocampista) assigned(2,1,difensore) assigned(3,2,centrocampista) assigned(4,1,difensore) assigned(5,1,difensore) assigned(6,2,difensore) assigned(7,1,difensore) assigned(8,1,portiere) assigned(9,2,attaccante) assigned(10,3,difensore) assigned(11,1,centrocampista) assigned(12,1,attaccante) assigned(13,3,attaccante) assigned(14,2,centrocampista) assigned(15,1,difensore) assigned(16,1,attaccante) assigned(17,1,centrocampista) assigned(18,1,difensore) assigned(19,2,portiere) assigned(20,3,portiere) assigned(21,3,centrocampista) total_penalty(1)
Optimization: 1
Answer: 2
assigned(1,3,difensore) assigned(2,2,difensore) assigned(3,1,difensore) assigned(4,3,difensore) assigned(5,3,attaccante) assigned(6,1,difensore) assigned(7,2,portiere) assigned(8,2,centrocampista) assigned(9,1,portiere) assigned(10,2,attaccante) assigned(11,3,centrocampista) assigned(12,1,attaccante) assigned(13,2,centrocampista) assigned(14,2,difensore) assigned(15,3,centrocampista) assigned(16,3,portiere) assigned(17,1,centrocampista) assigned(18,1,difensore) assigned(19,1,centrocampista) assigned(20,2,centrocampista) assigned(21,3,centrocampista) total_penalty(0)
Optimization: 0
Answer: 1
assigned(1,3,difensore) assigned(2,2,difensore) assigned(3,1,difensore) assigned(4,3,difensore) assigned(5,3,attaccante) assigned(6,1,difensore) assigned(7,2,portiere) assigned(8,2,centrocampista) assigned(9,3,portiere) assigned(10,2,attaccante) assigned(11,3,centrocampista) assigned(12,1,portiere) assigned(13,2,centrocampista) assigned(14,2,difensore) assigned(15,3,centrocampista) assigned(16,1,attaccante) assigned(17,1,centrocampista) assigned(18,1,difensore) assigned(19,1,centrocampista) assigned(20,2,centrocampista) assigned(21,3,centrocampista) total_penalty(0)
Optimization: 0
OPTIMUM FOUND

Models       : 3+
  Optimum    : yes
Optimization : 0
Calls        : 1
Time         : 0.008s (Solving: 0.00s 1st Model: 0.00s Unsat: 0.00s)
CPU Time     : 0.000s

Tempo di esecuzione Clingo: 0.02 secondi
